CUST NO.,LATITUDE,LONGITUDE,DEMAND,FROM TIME,TO TIME,SERVICE TIME
0,35.19807886,137.0112822,0,2000/1/1 9:00:00,2000/1/1 17:00:00,0
156,35.1968538,136.9608624,100,2000/1/1 9:00:00,2000/1/1 17:00:00,1
161,35.19547155,136.9595865,200,2000/1/1 9:00:00,2000/1/1 17:00:00,1
169,35.19477615,136.9618151,200,2000/1/1 9:00:00,2000/1/1 17:00:00,1
177,35.19432247,136.9545609,100,2000/1/1 9:00:00,2000/1/1 17:00:00,1
